NAME 
ROWS
 N  OBJ
 L  R0      
 L  R1      
 E  R2      
 E  R3      
 E  R4      
 E  R5      
 E  R6      
 E  R7      
 E  R8      
 E  R9      
 E  R10     
 E  R11     
 E  R12     
 E  R13     
 E  R14     
 E  R15     
 E  R16     
 E  R17     
 E  R18     
 E  R19     
 E  R20     
 E  R21     
 E  R22     
 E  R23     
 E  R24     
 E  R25     
 E  R26     
COLUMNS
    MARKER    'MARKER'                 'INTORG'
    I0(13)    OBJ       -108
    I0(13)    R0        -137
    I0(13)    R1        -122
    I0(13)    R2        10
    I0(13)    R3        15
    I0(13)    R5        2
    I0(13)    R6        19
    I0(13)    R7        19
    I0(13)    R9        14
    I0(13)    R11       10
    I0(13)    R12       11
    I0(13)    R13       7
    I0(13)    R14       16
    I0(13)    R26       1
    I1(12)    OBJ       190
    I1(12)    R0        161
    I1(12)    R1        -182
    I1(12)    R2        9
    I1(12)    R3        16
    I1(12)    R4        10
    I1(12)    R7        15
    I1(12)    R8        2
    I1(12)    R11       16
    I1(12)    R12       8
    I1(12)    R14       9
    I1(12)    R16       11
    I1(12)    R26       1
    I2(9)     OBJ       111
    I2(9)     R0        169
    I2(9)     R1        -91
    I2(9)     R5        14
    I2(9)     R7        15
    I2(9)     R8        2
    I2(9)     R9        17
    I2(9)     R12       16
    I2(9)     R15       7
    I2(9)     R26       1
    I3(9)     OBJ       131
    I3(9)     R0        -14
    I3(9)     R1        84
    I3(9)     R2        19
    I3(9)     R5        13
    I3(9)     R7        11
    I3(9)     R8        14
    I3(9)     R11       12
    I3(9)     R15       15
    I3(9)     R26       1
    I4(13)    OBJ       9
    I4(13)    R0        45
    I4(13)    R1        -8
    I4(13)    R3        -1
    I4(13)    R5        17
    I4(13)    R7        12
    I4(13)    R8        9
    I4(13)    R10       15
    I4(13)    R11       -1
    I4(13)    R13       15
    I4(13)    R14       16
    I4(13)    R15       13
    I4(13)    R16       14
    I4(13)    R26       1
    I5(11)    OBJ       -17
    I5(11)    R0        17
    I5(11)    R1        80
    I5(11)    R2        6
    I5(11)    R5        16
    I5(11)    R7        9
    I5(11)    R9        15
    I5(11)    R12       15
    I5(11)    R13       3
    I5(11)    R15       5
    I5(11)    R16       11
    I5(11)    R26       1
    I6(11)    OBJ       6
    I6(11)    R0        36
    I6(11)    R1        136
    I6(11)    R2        11
    I6(11)    R3        1
    I6(11)    R4        15
    I6(11)    R7        11
    I6(11)    R9        5
    I6(11)    R10       18
    I6(11)    R13       4
    I6(11)    R14       6
    I6(11)    R26       1
    I7(10)    OBJ       18
    I7(10)    R0        -181
    I7(10)    R1        19
    I7(10)    R2        6
    I7(10)    R5        13
    I7(10)    R6        9
    I7(10)    R10       9
    I7(10)    R12       3
    I7(10)    R15       14
    I7(10)    R16       -1
    I7(10)    R26       1
    I8(11)    OBJ       171
    I8(11)    R0        104
    I8(11)    R1        -26
    I8(11)    R2        5
    I8(11)    R3        19
    I8(11)    R6        3
    I8(11)    R7        11
    I8(11)    R12       4
    I8(11)    R14       6
    I8(11)    R15       8
    I8(11)    R16       8
    I8(11)    R26       1
    I9(9)     OBJ       119
    I9(9)     R0        -58
    I9(9)     R1        -117
    I9(9)     R8        8
    I9(9)     R10       11
    I9(9)     R11       11
    I9(9)     R12       19
    I9(9)     R14       7
    I9(9)     R16       8
    I9(9)     R26       1
    I10(13)   OBJ       140
    I10(13)   R0        -17
    I10(13)   R1        -26
    I10(13)   R2        1
    I10(13)   R3        14
    I10(13)   R4        1
    I10(13)   R6        16
    I10(13)   R9        15
    I10(13)   R10       13
    I10(13)   R11       14
    I10(13)   R13       12
    I10(13)   R15       6
    I10(13)   R16       3
    I10(13)   R26       1
    I11(10)   OBJ       192
    I11(10)   R0        -38
    I11(10)   R1        -178
    I11(10)   R4        2
    I11(10)   R6        14
    I11(10)   R8        7
    I11(10)   R9        18
    I11(10)   R13       6
    I11(10)   R14       -1
    I11(10)   R16       8
    I11(10)   R26       1
    I12(9)    OBJ       -160
    I12(9)    R0        -88
    I12(9)    R1        -165
    I12(9)    R6        -1
    I12(9)    R7        5
    I12(9)    R10       11
    I12(9)    R13       4
    I12(9)    R14       10
    I12(9)    R15       4
    I12(9)    R26       1
    I13(9)    OBJ       37
    I13(9)    R0        85
    I13(9)    R1        -190
    I13(9)    R2        7
    I13(9)    R3        16
    I13(9)    R8        12
    I13(9)    R9        10
    I13(9)    R10       2
    I13(9)    R11       7
    I13(9)    R26       1
    I14(10)   OBJ       -127
    I14(10)   R0        -54
    I14(10)   R1        128
    I14(10)   R3        14
    I14(10)   R6        11
    I14(10)   R8        2
    I14(10)   R9        9
    I14(10)   R11       4
    I14(10)   R12       5
    I14(10)   R15       6
    I14(10)   R26       1
    MARKER    'MARKER'                 'INTEND'
    C15(12)   OBJ       -7
    C15(12)   R0        2
    C15(12)   R1        4
    C15(12)   R4        6
    C15(12)   R5        5
    C15(12)   R8        18
    C15(12)   R10       7
    C15(12)   R13       7
    C15(12)   R15       10
    C15(12)   R16       11
    C15(12)   R19       9
    C15(12)   R24       9
    C15(12)   R25       15
    C16(12)   OBJ       4
    C16(12)   R0        1
    C16(12)   R1        7
    C16(12)   R2        13
    C16(12)   R7        1
    C16(12)   R8        19
    C16(12)   R10       17
    C16(12)   R11       5
    C16(12)   R12       14
    C16(12)   R13       -1
    C16(12)   R16       3
    C16(12)   R17       10
    C16(12)   R25       19
    C17(15)   OBJ       -8
    C17(15)   R0        2
    C17(15)   R1        -2
    C17(15)   R3        10
    C17(15)   R4        6
    C17(15)   R7        -1
    C17(15)   R8        2
    C17(15)   R10       8
    C17(15)   R11       9
    C17(15)   R12       2
    C17(15)   R13       4
    C17(15)   R16       3
    C17(15)   R17       4
    C17(15)   R18       18
    C17(15)   R20       6
    C17(15)   R24       15
    C18(15)   OBJ       -9
    C18(15)   R0        7
    C18(15)   R1        -2
    C18(15)   R4        11
    C18(15)   R6        8
    C18(15)   R9        9
    C18(15)   R10       11
    C18(15)   R11       2
    C18(15)   R12       19
    C18(15)   R14       2
    C18(15)   R18       13
    C18(15)   R19       10
    C18(15)   R20       12
    C18(15)   R22       7
    C18(15)   R24       9
    C18(15)   R25       4
    C19(18)   R0        -5
    C19(18)   R1        -6
    C19(18)   R4        12
    C19(18)   R5        14
    C19(18)   R6        9
    C19(18)   R7        3
    C19(18)   R9        9
    C19(18)   R12       9
    C19(18)   R13       3
    C19(18)   R14       5
    C19(18)   R16       -1
    C19(18)   R18       6
    C19(18)   R19       5
    C19(18)   R20       10
    C19(18)   R21       7
    C19(18)   R22       18
    C19(18)   R23       2
    C19(18)   R25       1
    C20(14)   OBJ       -2
    C20(14)   R0        6
    C20(14)   R1        1
    C20(14)   R2        5
    C20(14)   R3        15
    C20(14)   R8        19
    C20(14)   R9        11
    C20(14)   R13       9
    C20(14)   R15       18
    C20(14)   R16       11
    C20(14)   R17       13
    C20(14)   R20       19
    C20(14)   R22       8
    C20(14)   R24       10
    C20(14)   R25       15
    C21(11)   OBJ       4
    C21(11)   R0        -2
    C21(11)   R1        3
    C21(11)   R5        1
    C21(11)   R6        15
    C21(11)   R7        18
    C21(11)   R11       1
    C21(11)   R12       6
    C21(11)   R13       15
    C21(11)   R20       2
    C21(11)   R22       12
    C21(11)   R23       19
    C22(12)   OBJ       7
    C22(12)   R0        6
    C22(12)   R1        7
    C22(12)   R2        18
    C22(12)   R3        16
    C22(12)   R4        5
    C22(12)   R5        19
    C22(12)   R6        14
    C22(12)   R7        12
    C22(12)   R9        14
    C22(12)   R12       1
    C22(12)   R19       -1
    C22(12)   R22       10
    C23(14)   OBJ       -5
    C23(14)   R0        -6
    C23(14)   R1        2
    C23(14)   R4        19
    C23(14)   R7        11
    C23(14)   R8        16
    C23(14)   R12       2
    C23(14)   R13       5
    C23(14)   R17       9
    C23(14)   R18       5
    C23(14)   R20       11
    C23(14)   R21       -1
    C23(14)   R22       12
    C23(14)   R24       13
    C23(14)   R25       9
    C24(17)   OBJ       -1
    C24(17)   R0        6
    C24(17)   R2        -1
    C24(17)   R3        17
    C24(17)   R5        17
    C24(17)   R6        16
    C24(17)   R9        5
    C24(17)   R10       18
    C24(17)   R11       2
    C24(17)   R12       14
    C24(17)   R13       15
    C24(17)   R16       6
    C24(17)   R18       7
    C24(17)   R19       10
    C24(17)   R21       14
    C24(17)   R22       6
    C24(17)   R23       19
    C24(17)   R25       2
    C25(1)    R2        1
    C26(1)    R3        1
    C27(1)    R4        1
    C28(1)    R5        1
    C29(1)    R6        1
    C30(1)    R7        1
    C31(1)    R8        1
    C32(1)    R9        1
    C33(1)    R10       1
    C34(1)    R11       1
    C35(1)    R12       1
    C36(1)    R13       1
    C37(1)    R14       1
    C38(1)    R15       1
    C39(1)    R16       1
    C40(1)    R17       1
    C41(1)    R18       1
    C42(1)    R19       1
    C43(1)    R20       1
    C44(1)    R21       1
    C45(1)    R22       1
    C46(1)    R23       1
    C47(1)    R24       1
    C48(1)    R25       1
    C49(1)    R26       1
RHS
    RHS1      R0        -2.3495403204623051e+02
    RHS1      R1        -7.5965589703178352e+01
    RHS1      R2        81
    RHS1      R3        99
    RHS1      R4        57
    RHS1      R5        95
    RHS1      R6        59
    RHS1      R7        54
    RHS1      R8        64
    RHS1      R9        68
    RHS1      R10       92
    RHS1      R11       61
    RHS1      R12       79
    RHS1      R13       54
    RHS1      R14       71
    RHS1      R15       76
    RHS1      R16       91
    RHS1      R17       60
    RHS1      R18       92
    RHS1      R19       98
    RHS1      R20       87
    RHS1      R21       86
    RHS1      R22       77
    RHS1      R23       54
    RHS1      R24       84
    RHS1      R25       55
    RHS1      R26       5
BOUNDS
 UP BND1      I0(13)    1
 UP BND1      I1(12)    1
 UP BND1      I2(9)     1
 UP BND1      I3(9)     1
 UP BND1      I4(13)    1
 UP BND1      I5(11)    1
 UP BND1      I6(11)    1
 UP BND1      I7(10)    1
 UP BND1      I8(11)    1
 UP BND1      I9(9)     1
 UP BND1      I10(13)   1
 UP BND1      I11(10)   1
 UP BND1      I12(9)    1
 UP BND1      I13(9)    1
 UP BND1      I14(10)   1
ENDATA
